c "819837.clq"
p edge 100 384
e 1 5
e 1 6
e 1 7
e 1 16
e 1 29
e 1 30
e 1 49
e 1 62
e 1 67
e 1 70
e 1 76
e 2 5
e 2 6
e 2 7
e 2 8
e 2 11
e 2 13
e 2 15
e 2 21
e 2 23
e 2 24
e 2 27
e 2 34
e 2 44
e 2 52
e 2 54
e 2 58
e 2 60
e 2 63
e 3 5
e 3 14
e 3 17
e 3 61
e 3 62
e 3 74
e 3 90
e 3 96
e 4 5
e 4 6
e 4 8
e 4 9
e 4 14
e 4 16
e 4 23
e 4 26
e 4 34
e 4 40
e 4 51
e 4 54
e 4 56
e 4 69
e 4 72
e 4 82
e 5 6
e 5 7
e 5 8
e 5 9
e 5 10
e 5 11
e 5 12
e 5 13
e 5 14
e 5 16
e 5 17
e 5 18
e 5 21
e 5 22
e 5 23
e 5 25
e 5 27
e 5 28
e 5 29
e 5 31
e 5 33
e 5 37
e 5 44
e 5 46
e 5 49
e 5 53
e 5 55
e 5 56
e 5 57
e 5 59
e 5 74
e 5 78
e 5 83
e 5 91
e 5 92
e 5 99
e 6 7
e 6 8
e 6 9
e 6 10
e 6 15
e 6 31
e 6 33
e 6 34
e 6 36
e 6 39
e 6 40
e 6 46
e 6 49
e 6 68
e 6 72
e 6 75
e 6 82
e 7 13
e 7 18
e 7 38
e 7 41
e 7 43
e 7 46
e 7 76
e 7 80
e 7 81
e 7 87
e 7 93
e 7 95
e 8 9
e 8 10
e 8 12
e 8 15
e 8 17
e 8 18
e 8 20
e 8 21
e 8 22
e 8 24
e 8 25
e 8 26
e 8 28
e 8 30
e 8 33
e 8 35
e 8 36
e 8 39
e 8 42
e 8 45
e 8 47
e 8 50
e 8 51
e 8 56
e 8 60
e 8 89
e 9 10
e 9 11
e 9 12
e 9 14
e 9 15
e 9 17
e 9 18
e 9 20
e 9 25
e 9 26
e 9 32
e 9 38
e 9 40
e 9 41
e 9 42
e 9 45
e 9 47
e 9 52
e 9 56
e 9 61
e 9 76
e 9 83
e 9 90
e 9 92
e 9 96
e 9 100
e 10 11
e 10 25
e 10 29
e 10 35
e 10 37
e 10 41
e 10 67
e 11 12
e 11 13
e 11 19
e 11 36
e 11 38
e 11 50
e 11 52
e 11 54
e 11 81
e 11 86
e 11 98
e 12 20
e 12 22
e 12 24
e 12 47
e 12 57
e 12 60
e 12 68
e 12 76
e 12 89
e 12 93
e 13 27
e 13 32
e 13 34
e 13 55
e 13 73
e 14 19
e 14 20
e 14 87
e 14 91
e 14 96
e 15 16
e 15 19
e 15 21
e 15 23
e 15 30
e 15 32
e 15 37
e 15 39
e 15 44
e 15 45
e 15 48
e 15 53
e 15 59
e 15 88
e 15 95
e 15 97
e 16 24
e 16 28
e 16 55
e 16 64
e 16 72
e 16 77
e 16 85
e 16 97
e 18 19
e 18 31
e 18 55
e 18 87
e 18 91
e 18 99
e 19 36
e 19 43
e 19 51
e 19 53
e 19 86
e 19 88
e 20 32
e 20 77
e 20 78
e 20 79
e 20 80
e 20 88
e 20 97
e 21 22
e 21 26
e 21 27
e 21 29
e 21 31
e 21 33
e 21 39
e 21 43
e 21 47
e 21 59
e 21 92
e 22 40
e 22 42
e 22 58
e 22 86
e 23 35
e 23 49
e 23 50
e 23 59
e 23 69
e 24 45
e 25 28
e 25 62
e 25 70
e 26 38
e 26 48
e 26 54
e 26 71
e 27 30
e 27 94
e 28 37
e 28 41
e 28 60
e 29 35
e 30 48
e 30 61
e 30 66
e 30 75
e 30 95
e 31 69
e 31 84
e 31 91
e 32 46
e 32 48
e 32 52
e 32 66
e 32 80
e 32 90
e 33 85
e 33 94
e 33 98
e 34 61
e 34 74
e 35 44
e 35 70
e 35 84
e 36 64
e 36 65
e 36 66
e 36 87
e 36 95
e 37 42
e 37 58
e 37 65
e 37 67
e 37 69
e 38 64
e 38 68
e 40 57
e 41 67
e 42 43
e 42 51
e 42 93
e 43 71
e 43 94
e 44 50
e 44 58
e 44 73
e 44 78
e 45 62
e 45 63
e 46 63
e 46 73
e 46 92
e 46 97
e 48 75
e 48 84
e 48 85
e 49 65
e 49 71
e 49 78
e 49 81
e 49 82
e 49 85
e 50 53
e 50 66
e 51 84
e 53 63
e 53 71
e 53 79
e 53 94
e 54 74
e 55 57
e 55 88
e 56 73
e 56 77
e 58 98
e 59 81
e 59 93
e 62 64
e 63 72
e 63 79
e 63 89
e 64 65
e 64 80
e 65 77
e 66 68
e 68 79
e 69 70
e 71 75
e 71 82
e 72 83
e 73 83
e 74 89
e 76 86
e 79 98
e 83 100
e 84 90
e 86 100
e 89 99
e 89 100
e 92 96
e 96 99
